TOUR_SECTION
65
192
146
11
144
59
162
55
10
194
5
12
61
58
87
24
62
103
50
46
122
105
57
173
143
157
128
63
3
179
44
141
170
136
22
137
39
35
83
134
79
109
26
113
156
174
96
71
77
94
68
159
38
168
197
66
75
139
69
67
51
9
130
41
54
25
123
164
186
70
110
171
133
163
32
99
198
19
7
64
30
119
112
47
100
28
74
142
92
200
101
108
118
199
97
175
27
31
148
86
172
150
124
73
189
45
89
80
14
88
29
149
2
81
169
114
90
95
53
127
43
6
190
155
104
8
13
153
72
115
17
49
126
42
48
111
182
85
167
33
145
1
193
4
20
160
132
107
102
158
140
98
117
135
76
16
165
161
56
36
125
180
166
40
15
23
154
178
34
52
60
187
91
21
37
185
181
93
188
116
183
138
196
121
191
18
82
184
78
106
195
176
177
120
84
152
131
129
147
151
-1
EOF